; benchmark generated from python API
(set-info :status unknown)
(declare-fun cell_1_6 () Int)
(declare-fun cell_1_8 () Int)
(declare-fun cell_2_7 () Int)
(declare-fun cell_3_3 () Int)
(declare-fun cell_4_4 () Int)
(declare-fun cell_5_8 () Int)
(declare-fun cell_6_1 () Int)
(declare-fun cell_7_9 () Int)
(declare-fun cell_8_2 () Int)
(declare-fun cell_9_5 () Int)
(declare-fun cell_1_1 () Int)
(declare-fun cell_2_1 () Int)
(declare-fun cell_3_1 () Int)
(declare-fun cell_4_1 () Int)
(declare-fun cell_5_1 () Int)
(declare-fun cell_7_1 () Int)
(declare-fun cell_8_1 () Int)
(declare-fun cell_9_1 () Int)
(declare-fun cell_1_2 () Int)
(declare-fun cell_2_2 () Int)
(declare-fun cell_3_2 () Int)
(declare-fun cell_4_2 () Int)
(declare-fun cell_5_2 () Int)
(declare-fun cell_6_2 () Int)
(declare-fun cell_7_2 () Int)
(declare-fun cell_9_2 () Int)
(declare-fun cell_1_3 () Int)
(declare-fun cell_2_3 () Int)
(declare-fun cell_4_3 () Int)
(declare-fun cell_5_3 () Int)
(declare-fun cell_6_3 () Int)
(declare-fun cell_7_3 () Int)
(declare-fun cell_8_3 () Int)
(declare-fun cell_9_3 () Int)
(declare-fun cell_1_4 () Int)
(declare-fun cell_2_4 () Int)
(declare-fun cell_3_4 () Int)
(declare-fun cell_5_4 () Int)
(declare-fun cell_6_4 () Int)
(declare-fun cell_7_4 () Int)
(declare-fun cell_8_4 () Int)
(declare-fun cell_9_4 () Int)
(declare-fun cell_1_5 () Int)
(declare-fun cell_2_5 () Int)
(declare-fun cell_3_5 () Int)
(declare-fun cell_4_5 () Int)
(declare-fun cell_5_5 () Int)
(declare-fun cell_6_5 () Int)
(declare-fun cell_7_5 () Int)
(declare-fun cell_8_5 () Int)
(declare-fun cell_2_6 () Int)
(declare-fun cell_3_6 () Int)
(declare-fun cell_4_6 () Int)
(declare-fun cell_5_6 () Int)
(declare-fun cell_6_6 () Int)
(declare-fun cell_7_6 () Int)
(declare-fun cell_8_6 () Int)
(declare-fun cell_9_6 () Int)
(declare-fun cell_1_7 () Int)
(declare-fun cell_3_7 () Int)
(declare-fun cell_4_7 () Int)
(declare-fun cell_5_7 () Int)
(declare-fun cell_6_7 () Int)
(declare-fun cell_7_7 () Int)
(declare-fun cell_8_7 () Int)
(declare-fun cell_9_7 () Int)
(declare-fun cell_2_8 () Int)
(declare-fun cell_3_8 () Int)
(declare-fun cell_4_8 () Int)
(declare-fun cell_6_8 () Int)
(declare-fun cell_7_8 () Int)
(declare-fun cell_8_8 () Int)
(declare-fun cell_9_8 () Int)
(declare-fun cell_1_9 () Int)
(declare-fun cell_2_9 () Int)
(declare-fun cell_3_9 () Int)
(declare-fun cell_4_9 () Int)
(declare-fun cell_5_9 () Int)
(declare-fun cell_6_9 () Int)
(declare-fun cell_8_9 () Int)
(declare-fun cell_9_9 () Int)
(assert
 (= cell_1_6 1))
(assert
 (= cell_1_8 2))
(assert
 (= cell_2_7 1))
(assert
 (= cell_3_3 1))
(assert
 (= cell_4_4 1))
(assert
 (= cell_5_8 1))
(assert
 (= cell_6_1 1))
(assert
 (= cell_7_9 1))
(assert
 (= cell_8_2 1))
(assert
 (= cell_9_5 1))
(assert
 (let (($x1949 (= cell_1_1 9)))
 (let (($x5569 (= cell_1_1 8)))
 (let (($x1372 (= cell_1_1 7)))
 (let (($x4693 (= cell_1_1 6)))
 (let (($x3518 (= cell_1_1 5)))
 (let (($x5910 (= cell_1_1 4)))
 (let (($x2405 (= cell_1_1 3)))
 (let (($x39 (= cell_1_1 2)))
 (let (($x6339 (= cell_1_1 1)))
 (or $x6339 $x39 $x2405 $x5910 $x3518 $x4693 $x1372 $x5569 $x1949)))))))))))
(assert
 (let (($x6567 (= cell_2_1 9)))
 (let (($x4415 (= cell_2_1 8)))
 (let (($x369 (= cell_2_1 7)))
 (let (($x3264 (= cell_2_1 6)))
 (let (($x4331 (= cell_2_1 5)))
 (let (($x2068 (= cell_2_1 4)))
 (let (($x872 (= cell_2_1 3)))
 (let (($x5323 (= cell_2_1 2)))
 (let (($x4588 (= cell_2_1 1)))
 (or $x4588 $x5323 $x872 $x2068 $x4331 $x3264 $x369 $x4415 $x6567)))))))))))
(assert
 (let (($x5034 (= cell_3_1 9)))
 (let (($x143 (= cell_3_1 8)))
 (let (($x881 (= cell_3_1 7)))
 (let (($x4635 (= cell_3_1 6)))
 (let (($x4459 (= cell_3_1 5)))
 (let (($x1043 (= cell_3_1 4)))
 (let (($x2997 (= cell_3_1 3)))
 (let (($x1133 (= cell_3_1 2)))
 (let (($x668 (= cell_3_1 1)))
 (or $x668 $x1133 $x2997 $x1043 $x4459 $x4635 $x881 $x143 $x5034)))))))))))
(assert
 (let (($x3097 (= cell_4_1 9)))
 (let (($x5556 (= cell_4_1 8)))
 (let (($x4565 (= cell_4_1 7)))
 (let (($x4374 (= cell_4_1 6)))
 (let (($x4058 (= cell_4_1 5)))
 (let (($x1484 (= cell_4_1 4)))
 (let (($x3096 (= cell_4_1 3)))
 (let (($x247 (= cell_4_1 2)))
 (let (($x6330 (= cell_4_1 1)))
 (or $x6330 $x247 $x3096 $x1484 $x4058 $x4374 $x4565 $x5556 $x3097)))))))))))
(assert
 (let (($x4109 (= cell_5_1 9)))
 (let (($x4689 (= cell_5_1 8)))
 (let (($x41 (= cell_5_1 7)))
 (let (($x8757 (= cell_5_1 6)))
 (let (($x3473 (= cell_5_1 5)))
 (let (($x835 (= cell_5_1 4)))
 (let (($x1411 (= cell_5_1 3)))
 (let (($x3355 (= cell_5_1 2)))
 (let (($x3762 (= cell_5_1 1)))
 (or $x3762 $x3355 $x1411 $x835 $x3473 $x8757 $x41 $x4689 $x4109)))))))))))
(assert
 (let (($x1527 (= cell_6_1 1)))
 (or $x1527 (= cell_6_1 2) (= cell_6_1 3) (= cell_6_1 4) (= cell_6_1 5) (= cell_6_1 6) (= cell_6_1 7) (= cell_6_1 8) (= cell_6_1 9))))
(assert
 (let (($x4155 (= cell_7_1 9)))
 (let (($x3952 (= cell_7_1 8)))
 (let (($x3503 (= cell_7_1 7)))
 (let (($x3238 (= cell_7_1 6)))
 (let (($x4645 (= cell_7_1 5)))
 (let (($x4380 (= cell_7_1 4)))
 (let (($x5709 (= cell_7_1 3)))
 (let (($x6584 (= cell_7_1 2)))
 (let (($x3284 (= cell_7_1 1)))
 (or $x3284 $x6584 $x5709 $x4380 $x4645 $x3238 $x3503 $x3952 $x4155)))))))))))
(assert
 (let (($x3482 (= cell_8_1 9)))
 (let (($x4676 (= cell_8_1 8)))
 (let (($x2882 (= cell_8_1 7)))
 (let (($x6291 (= cell_8_1 6)))
 (let (($x135 (= cell_8_1 5)))
 (let (($x6404 (= cell_8_1 4)))
 (let (($x2641 (= cell_8_1 3)))
 (let (($x5504 (= cell_8_1 2)))
 (let (($x2999 (= cell_8_1 1)))
 (or $x2999 $x5504 $x2641 $x6404 $x135 $x6291 $x2882 $x4676 $x3482)))))))))))
(assert
 (let (($x6203 (= cell_9_1 9)))
 (let (($x1979 (= cell_9_1 8)))
 (let (($x378 (= cell_9_1 7)))
 (let (($x4071 (= cell_9_1 6)))
 (let (($x2823 (= cell_9_1 5)))
 (let (($x1023 (= cell_9_1 4)))
 (let (($x4930 (= cell_9_1 3)))
 (let (($x1757 (= cell_9_1 2)))
 (let (($x3838 (= cell_9_1 1)))
 (or $x3838 $x1757 $x4930 $x1023 $x2823 $x4071 $x378 $x1979 $x6203)))))))))))
(assert
 (let (($x2568 (= cell_1_2 9)))
 (let (($x4084 (= cell_1_2 8)))
 (let (($x281 (= cell_1_2 7)))
 (let (($x517 (= cell_1_2 6)))
 (let (($x314 (= cell_1_2 5)))
 (let (($x3533 (= cell_1_2 4)))
 (let (($x541 (= cell_1_2 3)))
 (let (($x5241 (= cell_1_2 2)))
 (let (($x105 (= cell_1_2 1)))
 (or $x105 $x5241 $x541 $x3533 $x314 $x517 $x281 $x4084 $x2568)))))))))))
(assert
 (let (($x3870 (= cell_2_2 9)))
 (let (($x771 (= cell_2_2 8)))
 (let (($x4580 (= cell_2_2 7)))
 (let (($x542 (= cell_2_2 6)))
 (let (($x3889 (= cell_2_2 5)))
 (let (($x4404 (= cell_2_2 4)))
 (let (($x2952 (= cell_2_2 3)))
 (let (($x2017 (= cell_2_2 2)))
 (let (($x6067 (= cell_2_2 1)))
 (or $x6067 $x2017 $x2952 $x4404 $x3889 $x542 $x4580 $x771 $x3870)))))))))))
(assert
 (let (($x2520 (= cell_3_2 9)))
 (let (($x4347 (= cell_3_2 8)))
 (let (($x374 (= cell_3_2 7)))
 (let (($x4746 (= cell_3_2 6)))
 (let (($x598 (= cell_3_2 5)))
 (let (($x4650 (= cell_3_2 4)))
 (let (($x1509 (= cell_3_2 3)))
 (let (($x1146 (= cell_3_2 2)))
 (let (($x4622 (= cell_3_2 1)))
 (or $x4622 $x1146 $x1509 $x4650 $x598 $x4746 $x374 $x4347 $x2520)))))))))))
(assert
 (let (($x4309 (= cell_4_2 9)))
 (let (($x3902 (= cell_4_2 8)))
 (let (($x4018 (= cell_4_2 7)))
 (let (($x5932 (= cell_4_2 6)))
 (let (($x5740 (= cell_4_2 5)))
 (let (($x3856 (= cell_4_2 4)))
 (let (($x3855 (= cell_4_2 3)))
 (let (($x5663 (= cell_4_2 2)))
 (let (($x2843 (= cell_4_2 1)))
 (or $x2843 $x5663 $x3855 $x3856 $x5740 $x5932 $x4018 $x3902 $x4309)))))))))))
(assert
 (let (($x5183 (= cell_5_2 9)))
 (let (($x4620 (= cell_5_2 8)))
 (let (($x5701 (= cell_5_2 7)))
 (let (($x4718 (= cell_5_2 6)))
 (let (($x5521 (= cell_5_2 5)))
 (let (($x5271 (= cell_5_2 4)))
 (let (($x4422 (= cell_5_2 3)))
 (let (($x4336 (= cell_5_2 2)))
 (let (($x490 (= cell_5_2 1)))
 (or $x490 $x4336 $x4422 $x5271 $x5521 $x4718 $x5701 $x4620 $x5183)))))))))))
(assert
 (let (($x4405 (= cell_6_2 9)))
 (let (($x5645 (= cell_6_2 8)))
 (let (($x761 (= cell_6_2 7)))
 (let (($x5715 (= cell_6_2 6)))
 (let (($x5453 (= cell_6_2 5)))
 (let (($x5209 (= cell_6_2 4)))
 (let (($x954 (= cell_6_2 3)))
 (let (($x3970 (= cell_6_2 2)))
 (let (($x3993 (= cell_6_2 1)))
 (or $x3993 $x3970 $x954 $x5209 $x5453 $x5715 $x761 $x5645 $x4405)))))))))))
(assert
 (let (($x3009 (= cell_7_2 9)))
 (let (($x481 (= cell_7_2 8)))
 (let (($x5516 (= cell_7_2 7)))
 (let (($x3477 (= cell_7_2 6)))
 (let (($x2226 (= cell_7_2 5)))
 (let (($x4640 (= cell_7_2 4)))
 (let (($x1884 (= cell_7_2 3)))
 (let (($x930 (= cell_7_2 2)))
 (let (($x6454 (= cell_7_2 1)))
 (or $x6454 $x930 $x1884 $x4640 $x2226 $x3477 $x5516 $x481 $x3009)))))))))))
(assert
 (let (($x6098 (= cell_8_2 1)))
 (or $x6098 (= cell_8_2 2) (= cell_8_2 3) (= cell_8_2 4) (= cell_8_2 5) (= cell_8_2 6) (= cell_8_2 7) (= cell_8_2 8) (= cell_8_2 9))))
(assert
 (let (($x3828 (= cell_9_2 9)))
 (let (($x4004 (= cell_9_2 8)))
 (let (($x6153 (= cell_9_2 7)))
 (let (($x4249 (= cell_9_2 6)))
 (let (($x750 (= cell_9_2 5)))
 (let (($x3103 (= cell_9_2 4)))
 (let (($x4791 (= cell_9_2 3)))
 (let (($x3668 (= cell_9_2 2)))
 (let (($x4119 (= cell_9_2 1)))
 (or $x4119 $x3668 $x4791 $x3103 $x750 $x4249 $x6153 $x4004 $x3828)))))))))))
(assert
 (let (($x1538 (= cell_1_3 9)))
 (let (($x4905 (= cell_1_3 8)))
 (let (($x3045 (= cell_1_3 7)))
 (let (($x3886 (= cell_1_3 6)))
 (let (($x6062 (= cell_1_3 5)))
 (let (($x246 (= cell_1_3 4)))
 (let (($x3997 (= cell_1_3 3)))
 (let (($x5247 (= cell_1_3 2)))
 (let (($x2286 (= cell_1_3 1)))
 (or $x2286 $x5247 $x3997 $x246 $x6062 $x3886 $x3045 $x4905 $x1538)))))))))))
(assert
 (let (($x4352 (= cell_2_3 9)))
 (let (($x4594 (= cell_2_3 8)))
 (let (($x632 (= cell_2_3 7)))
 (let (($x6368 (= cell_2_3 6)))
 (let (($x15 (= cell_2_3 5)))
 (let (($x1126 (= cell_2_3 4)))
 (let (($x133 (= cell_2_3 3)))
 (let (($x1113 (= cell_2_3 2)))
 (let (($x6359 (= cell_2_3 1)))
 (or $x6359 $x1113 $x133 $x1126 $x15 $x6368 $x632 $x4594 $x4352)))))))))))
(assert
 (let (($x5439 (= cell_3_3 1)))
 (or $x5439 (= cell_3_3 2) (= cell_3_3 3) (= cell_3_3 4) (= cell_3_3 5) (= cell_3_3 6) (= cell_3_3 7) (= cell_3_3 8) (= cell_3_3 9))))
(assert
 (let (($x421 (= cell_4_3 9)))
 (let (($x5804 (= cell_4_3 8)))
 (let (($x3091 (= cell_4_3 7)))
 (let (($x3901 (= cell_4_3 6)))
 (let (($x5769 (= cell_4_3 5)))
 (let (($x1070 (= cell_4_3 4)))
 (let (($x987 (= cell_4_3 3)))
 (let (($x359 (= cell_4_3 2)))
 (let (($x3723 (= cell_4_3 1)))
 (or $x3723 $x359 $x987 $x1070 $x5769 $x3901 $x3091 $x5804 $x421)))))))))))
(assert
 (let (($x3701 (= cell_5_3 9)))
 (let (($x4541 (= cell_5_3 8)))
 (let (($x4242 (= cell_5_3 7)))
 (let (($x3946 (= cell_5_3 6)))
 (let (($x151 (= cell_5_3 5)))
 (let (($x4907 (= cell_5_3 4)))
 (let (($x1665 (= cell_5_3 3)))
 (let (($x5873 (= cell_5_3 2)))
 (let (($x3954 (= cell_5_3 1)))
 (or $x3954 $x5873 $x1665 $x4907 $x151 $x3946 $x4242 $x4541 $x3701)))))))))))
(assert
 (let (($x6071 (= cell_6_3 2)))
 (let (($x11 (= cell_6_3 1)))
 (or $x11 $x6071 (= cell_6_3 3) (= cell_6_3 4) (= cell_6_3 5) (= cell_6_3 6) (= cell_6_3 7) (= cell_6_3 8) (= cell_6_3 9)))))
(assert
 (let (($x4198 (= cell_7_3 9)))
 (let (($x2290 (= cell_7_3 8)))
 (let (($x4555 (= cell_7_3 7)))
 (let (($x4516 (= cell_7_3 6)))
 (let (($x2588 (= cell_7_3 5)))
 (let (($x3632 (= cell_7_3 4)))
 (let (($x5311 (= cell_7_3 3)))
 (let (($x534 (= cell_7_3 2)))
 (let (($x4007 (= cell_7_3 1)))
 (or $x4007 $x534 $x5311 $x3632 $x2588 $x4516 $x4555 $x2290 $x4198)))))))))))
(assert
 (let (($x5834 (= cell_8_3 1)))
 (or $x5834 (= cell_8_3 2) (= cell_8_3 3) (= cell_8_3 4) (= cell_8_3 5) (= cell_8_3 6) (= cell_8_3 7) (= cell_8_3 8) (= cell_8_3 9))))
(assert
 (let (($x5051 (= cell_9_3 9)))
 (let (($x2223 (= cell_9_3 8)))
 (let (($x1996 (= cell_9_3 7)))
 (let (($x146 (= cell_9_3 6)))
 (let (($x3968 (= cell_9_3 5)))
 (let (($x3880 (= cell_9_3 4)))
 (let (($x2250 (= cell_9_3 3)))
 (let (($x4550 (= cell_9_3 2)))
 (let (($x5962 (= cell_9_3 1)))
 (or $x5962 $x4550 $x2250 $x3880 $x3968 $x146 $x1996 $x2223 $x5051)))))))))))
(assert
 (let (($x4285 (= cell_1_4 9)))
 (let (($x5187 (= cell_1_4 8)))
 (let (($x5460 (= cell_1_4 7)))
 (let (($x2126 (= cell_1_4 6)))
 (let (($x1018 (= cell_1_4 5)))
 (let (($x2819 (= cell_1_4 4)))
 (let (($x3177 (= cell_1_4 3)))
 (let (($x2019 (= cell_1_4 2)))
 (let (($x4123 (= cell_1_4 1)))
 (or $x4123 $x2019 $x3177 $x2819 $x1018 $x2126 $x5460 $x5187 $x4285)))))))))))
(assert
 (let (($x3613 (= cell_2_4 9)))
 (let (($x5607 (= cell_2_4 8)))
 (let (($x4271 (= cell_2_4 7)))
 (let (($x330 (= cell_2_4 6)))
 (let (($x4744 (= cell_2_4 5)))
 (let (($x251 (= cell_2_4 4)))
 (let (($x4911 (= cell_2_4 3)))
 (let (($x5318 (= cell_2_4 2)))
 (let (($x3966 (= cell_2_4 1)))
 (or $x3966 $x5318 $x4911 $x251 $x4744 $x330 $x4271 $x5607 $x3613)))))))))))
(assert
 (let (($x196 (= cell_3_4 9)))
 (let (($x4391 (= cell_3_4 8)))
 (let (($x1796 (= cell_3_4 7)))
 (let (($x399 (= cell_3_4 6)))
 (let (($x2936 (= cell_3_4 5)))
 (let (($x117 (= cell_3_4 4)))
 (let (($x3309 (= cell_3_4 3)))
 (let (($x3937 (= cell_3_4 2)))
 (let (($x896 (= cell_3_4 1)))
 (or $x896 $x3937 $x3309 $x117 $x2936 $x399 $x1796 $x4391 $x196)))))))))))
(assert
 (let (($x3133 (= cell_4_4 1)))
 (or $x3133 (= cell_4_4 2) (= cell_4_4 3) (= cell_4_4 4) (= cell_4_4 5) (= cell_4_4 6) (= cell_4_4 7) (= cell_4_4 8) (= cell_4_4 9))))
(assert
 (let (($x2590 (= cell_5_4 9)))
 (let (($x1906 (= cell_5_4 8)))
 (let (($x1437 (= cell_5_4 7)))
 (let (($x4145 (= cell_5_4 6)))
 (let (($x3742 (= cell_5_4 5)))
 (let (($x2821 (= cell_5_4 4)))
 (let (($x1607 (= cell_5_4 3)))
 (let (($x1034 (= cell_5_4 2)))
 (let (($x1854 (= cell_5_4 1)))
 (or $x1854 $x1034 $x1607 $x2821 $x3742 $x4145 $x1437 $x1906 $x2590)))))))))))
(assert
 (let (($x5753 (= cell_6_4 1)))
 (or $x5753 (= cell_6_4 2) (= cell_6_4 3) (= cell_6_4 4) (= cell_6_4 5) (= cell_6_4 6) (= cell_6_4 7) (= cell_6_4 8) (= cell_6_4 9))))
(assert
 (let (($x2236 (= cell_7_4 9)))
 (let (($x2628 (= cell_7_4 8)))
 (let (($x3749 (= cell_7_4 7)))
 (let (($x4114 (= cell_7_4 6)))
 (let (($x1185 (= cell_7_4 5)))
 (let (($x2145 (= cell_7_4 4)))
 (let (($x4045 (= cell_7_4 3)))
 (let (($x5939 (= cell_7_4 2)))
 (let (($x5168 (= cell_7_4 1)))
 (or $x5168 $x5939 $x4045 $x2145 $x1185 $x4114 $x3749 $x2628 $x2236)))))))))))
(assert
 (let (($x3540 (= cell_8_4 9)))
 (let (($x766 (= cell_8_4 8)))
 (let (($x1360 (= cell_8_4 7)))
 (let (($x4215 (= cell_8_4 6)))
 (let (($x4140 (= cell_8_4 5)))
 (let (($x3818 (= cell_8_4 4)))
 (let (($x3249 (= cell_8_4 3)))
 (let (($x3851 (= cell_8_4 2)))
 (let (($x628 (= cell_8_4 1)))
 (or $x628 $x3851 $x3249 $x3818 $x4140 $x4215 $x1360 $x766 $x3540)))))))))))
(assert
 (let (($x4455 (= cell_9_4 9)))
 (let (($x4879 (= cell_9_4 8)))
 (let (($x3700 (= cell_9_4 7)))
 (let (($x3307 (= cell_9_4 6)))
 (let (($x2754 (= cell_9_4 5)))
 (let (($x3679 (= cell_9_4 4)))
 (let (($x3555 (= cell_9_4 3)))
 (let (($x819 (= cell_9_4 2)))
 (let (($x3916 (= cell_9_4 1)))
 (or $x3916 $x819 $x3555 $x3679 $x2754 $x3307 $x3700 $x4879 $x4455)))))))))))
(assert
 (let (($x631 (= cell_1_5 9)))
 (let (($x4223 (= cell_1_5 8)))
 (let (($x6139 (= cell_1_5 7)))
 (let (($x144 (= cell_1_5 6)))
 (let (($x958 (= cell_1_5 5)))
 (let (($x4670 (= cell_1_5 4)))
 (let (($x381 (= cell_1_5 3)))
 (let (($x2681 (= cell_1_5 2)))
 (let (($x2161 (= cell_1_5 1)))
 (or $x2161 $x2681 $x381 $x4670 $x958 $x144 $x6139 $x4223 $x631)))))))))))
(assert
 (let (($x3774 (= cell_2_5 9)))
 (let (($x3399 (= cell_2_5 8)))
 (let (($x1095 (= cell_2_5 7)))
 (let (($x4836 (= cell_2_5 6)))
 (let (($x1649 (= cell_2_5 5)))
 (let (($x2113 (= cell_2_5 4)))
 (let (($x4536 (= cell_2_5 3)))
 (let (($x450 (= cell_2_5 2)))
 (let (($x2185 (= cell_2_5 1)))
 (or $x2185 $x450 $x4536 $x2113 $x1649 $x4836 $x1095 $x3399 $x3774)))))))))))
(assert
 (let (($x175 (= cell_3_5 9)))
 (let (($x4086 (= cell_3_5 8)))
 (let (($x1255 (= cell_3_5 7)))
 (let (($x3444 (= cell_3_5 6)))
 (let (($x2604 (= cell_3_5 5)))
 (let (($x854 (= cell_3_5 4)))
 (let (($x6078 (= cell_3_5 3)))
 (let (($x1924 (= cell_3_5 2)))
 (let (($x1958 (= cell_3_5 1)))
 (or $x1958 $x1924 $x6078 $x854 $x2604 $x3444 $x1255 $x4086 $x175)))))))))))
(assert
 (let (($x1321 (= cell_4_5 9)))
 (let (($x894 (= cell_4_5 8)))
 (let (($x3675 (= cell_4_5 7)))
 (let (($x2743 (= cell_4_5 6)))
 (let (($x3313 (= cell_4_5 5)))
 (let (($x5598 (= cell_4_5 4)))
 (let (($x1513 (= cell_4_5 3)))
 (let (($x1712 (= cell_4_5 2)))
 (let (($x5625 (= cell_4_5 1)))
 (or $x5625 $x1712 $x1513 $x5598 $x3313 $x2743 $x3675 $x894 $x1321)))))))))))
(assert
 (let (($x5906 (= cell_5_5 9)))
 (let (($x3907 (= cell_5_5 8)))
 (let (($x6443 (= cell_5_5 7)))
 (let (($x4531 (= cell_5_5 6)))
 (let (($x4183 (= cell_5_5 5)))
 (let (($x410 (= cell_5_5 4)))
 (let (($x5320 (= cell_5_5 3)))
 (let (($x609 (= cell_5_5 2)))
 (let (($x3654 (= cell_5_5 1)))
 (or $x3654 $x609 $x5320 $x410 $x4183 $x4531 $x6443 $x3907 $x5906)))))))))))
(assert
 (let (($x8365 (= cell_6_5 9)))
 (let (($x3469 (= cell_6_5 8)))
 (let (($x7797 (= cell_6_5 7)))
 (let (($x1905 (= cell_6_5 6)))
 (let (($x5194 (= cell_6_5 5)))
 (let (($x4838 (= cell_6_5 4)))
 (let (($x276 (= cell_6_5 3)))
 (let (($x5408 (= cell_6_5 2)))
 (let (($x3039 (= cell_6_5 1)))
 (or $x3039 $x5408 $x276 $x4838 $x5194 $x1905 $x7797 $x3469 $x8365)))))))))))
(assert
 (let (($x346 (= cell_7_5 9)))
 (let (($x3138 (= cell_7_5 8)))
 (let (($x6044 (= cell_7_5 7)))
 (let (($x5426 (= cell_7_5 6)))
 (let (($x4606 (= cell_7_5 5)))
 (let (($x277 (= cell_7_5 4)))
 (let (($x2381 (= cell_7_5 3)))
 (let (($x3817 (= cell_7_5 2)))
 (let (($x3387 (= cell_7_5 1)))
 (or $x3387 $x3817 $x2381 $x277 $x4606 $x5426 $x6044 $x3138 $x346)))))))))))
(assert
 (let (($x4255 (= cell_8_5 9)))
 (let (($x4662 (= cell_8_5 8)))
 (let (($x3489 (= cell_8_5 7)))
 (let (($x2544 (= cell_8_5 6)))
 (let (($x5895 (= cell_8_5 5)))
 (let (($x3531 (= cell_8_5 4)))
 (let (($x3110 (= cell_8_5 3)))
 (let (($x3364 (= cell_8_5 2)))
 (let (($x1342 (= cell_8_5 1)))
 (or $x1342 $x3364 $x3110 $x3531 $x5895 $x2544 $x3489 $x4662 $x4255)))))))))))
(assert
 (let (($x566 (= cell_9_5 1)))
 (or $x566 (= cell_9_5 2) (= cell_9_5 3) (= cell_9_5 4) (= cell_9_5 5) (= cell_9_5 6) (= cell_9_5 7) (= cell_9_5 8) (= cell_9_5 9))))
(assert
 (let (($x4527 (= cell_1_6 1)))
 (or $x4527 (= cell_1_6 2) (= cell_1_6 3) (= cell_1_6 4) (= cell_1_6 5) (= cell_1_6 6) (= cell_1_6 7) (= cell_1_6 8) (= cell_1_6 9))))
(assert
 (let (($x4212 (= cell_2_6 9)))
 (let (($x2022 (= cell_2_6 8)))
 (let (($x1663 (= cell_2_6 7)))
 (let (($x1643 (= cell_2_6 6)))
 (let (($x4092 (= cell_2_6 5)))
 (let (($x5999 (= cell_2_6 4)))
 (let (($x1122 (= cell_2_6 3)))
 (let (($x5875 (= cell_2_6 2)))
 (let (($x2050 (= cell_2_6 1)))
 (or $x2050 $x5875 $x1122 $x5999 $x4092 $x1643 $x1663 $x2022 $x4212)))))))))))
(assert
 (let (($x605 (= cell_3_6 2)))
 (let (($x3765 (= cell_3_6 1)))
 (or $x3765 $x605 (= cell_3_6 3) (= cell_3_6 4) (= cell_3_6 5) (= cell_3_6 6) (= cell_3_6 7) (= cell_3_6 8) (= cell_3_6 9)))))
(assert
 (let (($x3704 (= cell_4_6 1)))
 (or $x3704 (= cell_4_6 2) (= cell_4_6 3) (= cell_4_6 4) (= cell_4_6 5) (= cell_4_6 6) (= cell_4_6 7) (= cell_4_6 8) (= cell_4_6 9))))
(assert
 (let (($x1243 (= cell_5_6 9)))
 (let (($x6307 (= cell_5_6 8)))
 (let (($x24 (= cell_5_6 7)))
 (let (($x5867 (= cell_5_6 6)))
 (let (($x984 (= cell_5_6 5)))
 (let (($x2092 (= cell_5_6 4)))
 (let (($x6309 (= cell_5_6 3)))
 (let (($x1374 (= cell_5_6 2)))
 (let (($x2730 (= cell_5_6 1)))
 (or $x2730 $x1374 $x6309 $x2092 $x984 $x5867 $x24 $x6307 $x1243)))))))))))
(assert
 (let (($x2193 (= cell_6_6 1)))
 (or $x2193 (= cell_6_6 2) (= cell_6_6 3) (= cell_6_6 4) (= cell_6_6 5) (= cell_6_6 6) (= cell_6_6 7) (= cell_6_6 8) (= cell_6_6 9))))
(assert
 (let (($x4557 (= cell_7_6 9)))
 (let (($x2080 (= cell_7_6 8)))
 (let (($x2953 (= cell_7_6 7)))
 (let (($x3878 (= cell_7_6 6)))
 (let (($x1721 (= cell_7_6 5)))
 (let (($x3479 (= cell_7_6 4)))
 (let (($x973 (= cell_7_6 3)))
 (let (($x5375 (= cell_7_6 2)))
 (let (($x4104 (= cell_7_6 1)))
 (or $x4104 $x5375 $x973 $x3479 $x1721 $x3878 $x2953 $x2080 $x4557)))))))))))
(assert
 (let (($x4539 (= cell_8_6 9)))
 (let (($x2799 (= cell_8_6 8)))
 (let (($x4085 (= cell_8_6 7)))
 (let (($x2593 (= cell_8_6 6)))
 (let (($x6547 (= cell_8_6 5)))
 (let (($x167 (= cell_8_6 4)))
 (let (($x6456 (= cell_8_6 3)))
 (let (($x4423 (= cell_8_6 2)))
 (let (($x5204 (= cell_8_6 1)))
 (or $x5204 $x4423 $x6456 $x167 $x6547 $x2593 $x4085 $x2799 $x4539)))))))))))
(assert
 (let (($x4056 (= cell_9_6 1)))
 (or $x4056 (= cell_9_6 2) (= cell_9_6 3) (= cell_9_6 4) (= cell_9_6 5) (= cell_9_6 6) (= cell_9_6 7) (= cell_9_6 8) (= cell_9_6 9))))
(assert
 (let (($x4915 (= cell_1_7 9)))
 (let (($x5886 (= cell_1_7 8)))
 (let (($x4363 (= cell_1_7 7)))
 (let (($x6217 (= cell_1_7 6)))
 (let (($x3606 (= cell_1_7 5)))
 (let (($x4318 (= cell_1_7 4)))
 (let (($x5831 (= cell_1_7 3)))
 (let (($x4291 (= cell_1_7 2)))
 (let (($x6558 (= cell_1_7 1)))
 (or $x6558 $x4291 $x5831 $x4318 $x3606 $x6217 $x4363 $x5886 $x4915)))))))))))
(assert
 (let (($x448 (= cell_2_7 1)))
 (or $x448 (= cell_2_7 2) (= cell_2_7 3) (= cell_2_7 4) (= cell_2_7 5) (= cell_2_7 6) (= cell_2_7 7) (= cell_2_7 8) (= cell_2_7 9))))
(assert
 (let (($x6160 (= cell_3_7 2)))
 (let (($x3821 (= cell_3_7 1)))
 (or $x3821 $x6160 (= cell_3_7 3) (= cell_3_7 4) (= cell_3_7 5) (= cell_3_7 6) (= cell_3_7 7) (= cell_3_7 8) (= cell_3_7 9)))))
(assert
 (let (($x3951 (= cell_4_7 9)))
 (let (($x224 (= cell_4_7 8)))
 (let (($x4150 (= cell_4_7 7)))
 (let (($x6418 (= cell_4_7 6)))
 (let (($x4118 (= cell_4_7 5)))
 (let (($x2839 (= cell_4_7 4)))
 (let (($x3977 (= cell_4_7 3)))
 (let (($x6316 (= cell_4_7 2)))
 (let (($x1479 (= cell_4_7 1)))
 (or $x1479 $x6316 $x3977 $x2839 $x4118 $x6418 $x4150 $x224 $x3951)))))))))))
(assert
 (let (($x3698 (= cell_5_7 9)))
 (let (($x2287 (= cell_5_7 8)))
 (let (($x561 (= cell_5_7 7)))
 (let (($x2054 (= cell_5_7 6)))
 (let (($x1228 (= cell_5_7 5)))
 (let (($x3242 (= cell_5_7 4)))
 (let (($x6531 (= cell_5_7 3)))
 (let (($x3261 (= cell_5_7 2)))
 (let (($x4899 (= cell_5_7 1)))
 (or $x4899 $x3261 $x6531 $x3242 $x1228 $x2054 $x561 $x2287 $x3698)))))))))))
(assert
 (let (($x3877 (= cell_6_7 1)))
 (or $x3877 (= cell_6_7 2) (= cell_6_7 3) (= cell_6_7 4) (= cell_6_7 5) (= cell_6_7 6) (= cell_6_7 7) (= cell_6_7 8) (= cell_6_7 9))))
(assert
 (let (($x3408 (= cell_7_7 9)))
 (let (($x4260 (= cell_7_7 8)))
 (let (($x3739 (= cell_7_7 7)))
 (let (($x5870 (= cell_7_7 6)))
 (let (($x532 (= cell_7_7 5)))
 (let (($x5762 (= cell_7_7 4)))
 (let (($x4642 (= cell_7_7 3)))
 (let (($x4576 (= cell_7_7 2)))
 (let (($x1349 (= cell_7_7 1)))
 (or $x1349 $x4576 $x4642 $x5762 $x532 $x5870 $x3739 $x4260 $x3408)))))))))))
(assert
 (let (($x4445 (= cell_8_7 1)))
 (or $x4445 (= cell_8_7 2) (= cell_8_7 3) (= cell_8_7 4) (= cell_8_7 5) (= cell_8_7 6) (= cell_8_7 7) (= cell_8_7 8) (= cell_8_7 9))))
(assert
 (let (($x3905 (= cell_9_7 1)))
 (or $x3905 (= cell_9_7 2) (= cell_9_7 3) (= cell_9_7 4) (= cell_9_7 5) (= cell_9_7 6) (= cell_9_7 7) (= cell_9_7 8) (= cell_9_7 9))))
(assert
 (let (($x5293 (= cell_1_8 2)))
 (or (= cell_1_8 1) $x5293 (= cell_1_8 3) (= cell_1_8 4) (= cell_1_8 5) (= cell_1_8 6) (= cell_1_8 7) (= cell_1_8 8) (= cell_1_8 9))))
(assert
 (let (($x2827 (= cell_2_8 9)))
 (let (($x96 (= cell_2_8 8)))
 (let (($x244 (= cell_2_8 7)))
 (let (($x480 (= cell_2_8 6)))
 (let (($x4484 (= cell_2_8 5)))
 (let (($x3882 (= cell_2_8 4)))
 (let (($x5354 (= cell_2_8 3)))
 (let (($x5344 (= cell_2_8 2)))
 (let (($x6095 (= cell_2_8 1)))
 (or $x6095 $x5344 $x5354 $x3882 $x4484 $x480 $x244 $x96 $x2827)))))))))))
(assert
 (let (($x1072 (= cell_3_8 9)))
 (let (($x6176 (= cell_3_8 8)))
 (let (($x6384 (= cell_3_8 7)))
 (let (($x6278 (= cell_3_8 6)))
 (let (($x6279 (= cell_3_8 5)))
 (let (($x3766 (= cell_3_8 4)))
 (let (($x547 (= cell_3_8 3)))
 (let (($x1660 (= cell_3_8 2)))
 (let (($x948 (= cell_3_8 1)))
 (or $x948 $x1660 $x547 $x3766 $x6279 $x6278 $x6384 $x6176 $x1072)))))))))))
(assert
 (let (($x4967 (= cell_4_8 9)))
 (let (($x900 (= cell_4_8 8)))
 (let (($x4131 (= cell_4_8 7)))
 (let (($x1008 (= cell_4_8 6)))
 (let (($x2989 (= cell_4_8 5)))
 (let (($x5357 (= cell_4_8 4)))
 (let (($x68 (= cell_4_8 3)))
 (let (($x4903 (= cell_4_8 2)))
 (let (($x519 (= cell_4_8 1)))
 (or $x519 $x4903 $x68 $x5357 $x2989 $x1008 $x4131 $x900 $x4967)))))))))))
(assert
 (let (($x3995 (= cell_5_8 1)))
 (or $x3995 (= cell_5_8 2) (= cell_5_8 3) (= cell_5_8 4) (= cell_5_8 5) (= cell_5_8 6) (= cell_5_8 7) (= cell_5_8 8) (= cell_5_8 9))))
(assert
 (let (($x3552 (= cell_6_8 2)))
 (let (($x4016 (= cell_6_8 1)))
 (or $x4016 $x3552 (= cell_6_8 3) (= cell_6_8 4) (= cell_6_8 5) (= cell_6_8 6) (= cell_6_8 7) (= cell_6_8 8) (= cell_6_8 9)))))
(assert
 (let (($x3474 (= cell_7_8 9)))
 (let (($x5872 (= cell_7_8 8)))
 (let (($x558 (= cell_7_8 7)))
 (let (($x5734 (= cell_7_8 6)))
 (let (($x4066 (= cell_7_8 5)))
 (let (($x989 (= cell_7_8 4)))
 (let (($x1021 (= cell_7_8 3)))
 (let (($x5680 (= cell_7_8 2)))
 (let (($x4101 (= cell_7_8 1)))
 (or $x4101 $x5680 $x1021 $x989 $x4066 $x5734 $x558 $x5872 $x3474)))))))))))
(assert
 (let (($x1294 (= cell_8_8 2)))
 (let (($x393 (= cell_8_8 1)))
 (or $x393 $x1294 (= cell_8_8 3) (= cell_8_8 4) (= cell_8_8 5) (= cell_8_8 6) (= cell_8_8 7) (= cell_8_8 8) (= cell_8_8 9)))))
(assert
 (let (($x1662 (= cell_9_8 2)))
 (let (($x465 (= cell_9_8 1)))
 (or $x465 $x1662 (= cell_9_8 3) (= cell_9_8 4) (= cell_9_8 5) (= cell_9_8 6) (= cell_9_8 7) (= cell_9_8 8) (= cell_9_8 9)))))
(assert
 (let (($x6208 (= cell_1_9 9)))
 (let (($x4017 (= cell_1_9 8)))
 (let (($x5522 (= cell_1_9 7)))
 (let (($x4442 (= cell_1_9 6)))
 (let (($x1823 (= cell_1_9 5)))
 (let (($x4448 (= cell_1_9 4)))
 (let (($x653 (= cell_1_9 3)))
 (let (($x3868 (= cell_1_9 2)))
 (let (($x3722 (= cell_1_9 1)))
 (or $x3722 $x3868 $x653 $x4448 $x1823 $x4442 $x5522 $x4017 $x6208)))))))))))
(assert
 (let (($x4112 (= cell_2_9 9)))
 (let (($x2523 (= cell_2_9 8)))
 (let (($x788 (= cell_2_9 7)))
 (let (($x3014 (= cell_2_9 6)))
 (let (($x5196 (= cell_2_9 5)))
 (let (($x1305 (= cell_2_9 4)))
 (let (($x6582 (= cell_2_9 3)))
 (let (($x2954 (= cell_2_9 2)))
 (let (($x4999 (= cell_2_9 1)))
 (or $x4999 $x2954 $x6582 $x1305 $x5196 $x3014 $x788 $x2523 $x4112)))))))))))
(assert
 (let (($x665 (= cell_3_9 9)))
 (let (($x3772 (= cell_3_9 8)))
 (let (($x1501 (= cell_3_9 7)))
 (let (($x1171 (= cell_3_9 6)))
 (let (($x4265 (= cell_3_9 5)))
 (let (($x1966 (= cell_3_9 4)))
 (let (($x5319 (= cell_3_9 3)))
 (let (($x3887 (= cell_3_9 2)))
 (let (($x4041 (= cell_3_9 1)))
 (or $x4041 $x3887 $x5319 $x1966 $x4265 $x1171 $x1501 $x3772 $x665)))))))))))
(assert
 (let (($x4224 (= cell_4_9 9)))
 (let (($x5540 (= cell_4_9 8)))
 (let (($x3930 (= cell_4_9 7)))
 (let (($x3498 (= cell_4_9 6)))
 (let (($x5415 (= cell_4_9 5)))
 (let (($x2525 (= cell_4_9 4)))
 (let (($x2195 (= cell_4_9 3)))
 (let (($x4738 (= cell_4_9 2)))
 (let (($x3545 (= cell_4_9 1)))
 (or $x3545 $x4738 $x2195 $x2525 $x5415 $x3498 $x3930 $x5540 $x4224)))))))))))
(assert
 (let (($x990 (= cell_5_9 9)))
 (let (($x4376 (= cell_5_9 8)))
 (let (($x1075 (= cell_5_9 7)))
 (let (($x4554 (= cell_5_9 6)))
 (let (($x2838 (= cell_5_9 5)))
 (let (($x2139 (= cell_5_9 4)))
 (let (($x6183 (= cell_5_9 3)))
 (let (($x2272 (= cell_5_9 2)))
 (let (($x6299 (= cell_5_9 1)))
 (or $x6299 $x2272 $x6183 $x2139 $x2838 $x4554 $x1075 $x4376 $x990)))))))))))
(assert
 (let (($x4790 (= cell_6_9 9)))
 (let (($x3644 (= cell_6_9 8)))
 (let (($x856 (= cell_6_9 7)))
 (let (($x762 (= cell_6_9 6)))
 (let (($x237 (= cell_6_9 5)))
 (let (($x5230 (= cell_6_9 4)))
 (let (($x4338 (= cell_6_9 3)))
 (let (($x3464 (= cell_6_9 2)))
 (let (($x4672 (= cell_6_9 1)))
 (or $x4672 $x3464 $x4338 $x5230 $x237 $x762 $x856 $x3644 $x4790)))))))))))
(assert
 (let (($x6193 (= cell_7_9 1)))
 (or $x6193 (= cell_7_9 2) (= cell_7_9 3) (= cell_7_9 4) (= cell_7_9 5) (= cell_7_9 6) (= cell_7_9 7) (= cell_7_9 8) (= cell_7_9 9))))
(assert
 (let (($x577 (= cell_8_9 1)))
 (or $x577 (= cell_8_9 2) (= cell_8_9 3) (= cell_8_9 4) (= cell_8_9 5) (= cell_8_9 6) (= cell_8_9 7) (= cell_8_9 8) (= cell_8_9 9))))
(assert
 (let (($x4176 (= cell_9_9 1)))
 (or $x4176 (= cell_9_9 2) (= cell_9_9 3) (= cell_9_9 4) (= cell_9_9 5) (= cell_9_9 6) (= cell_9_9 7) (= cell_9_9 8) (= cell_9_9 9))))
(assert
 (and (distinct cell_1_1 cell_1_2 cell_1_3 cell_1_4 cell_1_5 cell_1_6 cell_1_7 cell_1_8 cell_1_9) true))
(assert
 (and (distinct cell_2_1 cell_2_2 cell_2_3 cell_2_4 cell_2_5 cell_2_6 cell_2_7 cell_2_8 cell_2_9) true))
(assert
 (and (distinct cell_3_1 cell_3_2 cell_3_3 cell_3_4 cell_3_5 cell_3_6 cell_3_7 cell_3_8 cell_3_9) true))
(assert
 (and (distinct cell_4_1 cell_4_2 cell_4_3 cell_4_4 cell_4_5 cell_4_6 cell_4_7 cell_4_8 cell_4_9) true))
(assert
 (and (distinct cell_5_1 cell_5_2 cell_5_3 cell_5_4 cell_5_5 cell_5_6 cell_5_7 cell_5_8 cell_5_9) true))
(assert
 (and (distinct cell_6_1 cell_6_2 cell_6_3 cell_6_4 cell_6_5 cell_6_6 cell_6_7 cell_6_8 cell_6_9) true))
(assert
 (and (distinct cell_7_1 cell_7_2 cell_7_3 cell_7_4 cell_7_5 cell_7_6 cell_7_7 cell_7_8 cell_7_9) true))
(assert
 (and (distinct cell_8_1 cell_8_2 cell_8_3 cell_8_4 cell_8_5 cell_8_6 cell_8_7 cell_8_8 cell_8_9) true))
(assert
 (and (distinct cell_9_1 cell_9_2 cell_9_3 cell_9_4 cell_9_5 cell_9_6 cell_9_7 cell_9_8 cell_9_9) true))
(assert
 (and (distinct cell_1_1 cell_2_1 cell_3_1 cell_4_1 cell_5_1 cell_6_1 cell_7_1 cell_8_1 cell_9_1) true))
(assert
 (and (distinct cell_1_2 cell_2_2 cell_3_2 cell_4_2 cell_5_2 cell_6_2 cell_7_2 cell_8_2 cell_9_2) true))
(assert
 (and (distinct cell_1_3 cell_2_3 cell_3_3 cell_4_3 cell_5_3 cell_6_3 cell_7_3 cell_8_3 cell_9_3) true))
(assert
 (and (distinct cell_1_4 cell_2_4 cell_3_4 cell_4_4 cell_5_4 cell_6_4 cell_7_4 cell_8_4 cell_9_4) true))
(assert
 (and (distinct cell_1_5 cell_2_5 cell_3_5 cell_4_5 cell_5_5 cell_6_5 cell_7_5 cell_8_5 cell_9_5) true))
(assert
 (and (distinct cell_1_6 cell_2_6 cell_3_6 cell_4_6 cell_5_6 cell_6_6 cell_7_6 cell_8_6 cell_9_6) true))
(assert
 (and (distinct cell_1_7 cell_2_7 cell_3_7 cell_4_7 cell_5_7 cell_6_7 cell_7_7 cell_8_7 cell_9_7) true))
(assert
 (and (distinct cell_1_8 cell_2_8 cell_3_8 cell_4_8 cell_5_8 cell_6_8 cell_7_8 cell_8_8 cell_9_8) true))
(assert
 (and (distinct cell_1_9 cell_2_9 cell_3_9 cell_4_9 cell_5_9 cell_6_9 cell_7_9 cell_8_9 cell_9_9) true))
(assert
 (and (distinct cell_1_1 cell_1_2 cell_1_3 cell_2_1 cell_2_2 cell_2_3 cell_3_1 cell_3_2 cell_3_3) true))
(assert
 (and (distinct cell_1_4 cell_1_5 cell_1_6 cell_2_4 cell_2_5 cell_2_6 cell_3_4 cell_3_5 cell_3_6) true))
(assert
 (and (distinct cell_1_7 cell_1_8 cell_1_9 cell_2_7 cell_2_8 cell_2_9 cell_3_7 cell_3_8 cell_3_9) true))
(assert
 (and (distinct cell_4_1 cell_4_2 cell_4_3 cell_5_1 cell_5_2 cell_5_3 cell_6_1 cell_6_2 cell_6_3) true))
(assert
 (and (distinct cell_4_4 cell_4_5 cell_4_6 cell_5_4 cell_5_5 cell_5_6 cell_6_4 cell_6_5 cell_6_6) true))
(assert
 (and (distinct cell_4_7 cell_4_8 cell_4_9 cell_5_7 cell_5_8 cell_5_9 cell_6_7 cell_6_8 cell_6_9) true))
(assert
 (and (distinct cell_7_1 cell_7_2 cell_7_3 cell_8_1 cell_8_2 cell_8_3 cell_9_1 cell_9_2 cell_9_3) true))
(assert
 (and (distinct cell_7_4 cell_7_5 cell_7_6 cell_8_4 cell_8_5 cell_8_6 cell_9_4 cell_9_5 cell_9_6) true))
(assert
 (and (distinct cell_7_7 cell_7_8 cell_7_9 cell_8_7 cell_8_8 cell_8_9 cell_9_7 cell_9_8 cell_9_9) true))
(assert
 (let (($x5868 (and (distinct cell_5_9 cell_6_8 cell_7_7 cell_8_6) true)))
 (let (($x22 (and (distinct cell_2_9 cell_3_8 cell_4_7 cell_5_6 cell_6_5 cell_7_4 cell_8_3 cell_9_2) true)))
 (let (($x2041 (and (distinct cell_1_8 cell_2_7 cell_3_6 cell_4_5 cell_5_4 cell_6_3 cell_7_2 cell_8_1) true)))
 (let (($x3072 (and (distinct cell_1_5 cell_2_4 cell_3_3 cell_4_2) true)))
 (let (($x1347 (and (distinct cell_5_1 cell_6_2 cell_7_3 cell_8_4) true)))
 (let (($x3577 (and (distinct cell_2_1 cell_3_2 cell_4_3 cell_5_4 cell_6_5 cell_7_6 cell_8_7 cell_9_8) true)))
 (let (($x406 (and (distinct cell_1_2 cell_2_3 cell_3_4 cell_4_5 cell_5_6 cell_6_7 cell_7_8 cell_8_9) true)))
 (let (($x3788 (and (distinct cell_1_5 cell_2_6 cell_3_7 cell_4_8) true)))
 (and $x3788 $x406 $x3577 $x1347 $x3072 $x2041 $x22 $x5868))))))))))
(assert
 (= cell_2_5 2))
(check-sat)
